 11	73
 16
  0	  7	 38	 80	 56	 49	 24	111	  8	 97	 81	 57	130	129	122	147	
 14
  0	 68	 67	141	 10	 48	140	 39	 17	 83	112	121	 90	147	
 14
  0	 41	114	 63	  6	 15	 79	 29	136	 88	 18	102	 91	147	
 12
  0	 34	  5	 59	  2	 75	 25	132	107	 98	 78	147	
 18
  0	 45	118	 47	 22	 31	 33	  4	106	 43	 30	 95	104	120	103	116	 77	147	
 16
  0	 37	 51	 55	110	 52	 73	125	124	128	146	 46	 60	133	119	147	
 20
  0	 26	 35	 71	 11	108	 99	 23	 36	 84	144	 42	109	 96	 14	 87	115	  3	 76	147	
 20
  0	 19	 27	 54	 92	 66	100	 65	 50	139	 62	123	138	 21	135	  1	127	 94	 74	147	
 12
  0	 28	  9	101	 13	 86	 82	 53	 69	126	142	147	
 10
  0	 40	 70	113	 58	131	143	 32	105	147	
 16
  0	 61	 64	 16	 72	137	134	 89	145	 20	 44	117	 12	 93	 85	147	
